c File: instances/26_0.30_2.col
c
c Description: Random graph of size 26 vertices and P(0.3) of edges between any two vertices.
p col 26 325
e 1 2
e 1 5
e 1 6
e 1 11
e 1 12
e 1 13
e 1 15
e 1 16
e 1 22
e 1 26
e 2 6
e 2 12
e 2 14
e 2 18
e 2 19
e 2 20
e 2 24
e 2 25
e 3 5
e 3 10
e 3 11
e 3 13
e 3 14
e 3 16
e 3 20
e 3 25
e 3 26
e 4 6
e 4 8
e 4 12
e 4 13
e 4 17
e 4 18
e 4 19
e 4 21
e 4 23
e 4 24
e 5 9
e 5 14
e 5 19
e 5 26
e 6 8
e 6 10
e 6 17
e 6 25
e 7 11
e 7 22
e 7 23
e 8 9
e 8 18
e 8 19
e 8 21
e 8 24
e 8 26
e 9 17
e 9 19
e 9 25
e 10 15
e 10 25
e 10 26
e 11 12
e 11 17
e 11 18
e 11 21
e 11 23
e 11 26
e 12 15
e 13 14
e 13 16
e 13 18
e 13 19
e 13 20
e 13 22
e 14 19
e 14 22
e 14 23
e 15 20
e 15 22
e 15 23
e 15 24
e 15 26
e 16 17
e 16 19
e 16 22
e 16 24
e 17 25
e 18 21
e 18 23
e 18 24
e 18 25
e 19 20
e 19 24
e 19 25
e 19 26
e 20 22
e 20 26
e 21 24
e 22 23
e 22 25
e 23 25
e 23 26